NAME : 0
COMMENT : CVRP Instance
TYPE : CVRP
DIMENSION : 1001
EDGE_WEIGHT_TYPE : EUC_2D
CAPACITY : 180
NODE_COORD_SECTION
1	598.0	166.0
2	611.0	137.0
3	245.0	304.0
4	506.0	347.0
5	549.0	227.0
6	465.0	280.0
7	844.0	495.0
8	602.0	242.0
9	702.0	267.0
10	271.0	361.0
11	562.0	254.0
12	410.0	381.0
13	454.0	637.0
14	364.0	132.0
15	356.0	434.0
16	583.0	244.0
17	531.0	80.0
18	855.0	279.0
19	455.0	330.0
20	838.0	448.0
21	556.0	229.0
22	570.0	239.0
23	376.0	608.0
24	408.0	294.0
25	398.0	48.0
26	564.0	250.0
27	588.0	474.0
28	715.0	378.0
29	414.0	144.0
30	451.0	381.0
31	591.0	114.0
32	411.0	89.0
33	554.0	229.0
34	604.0	106.0
35	151.0	322.0
36	810.0	470.0
37	522.0	230.0
38	164.0	705.0
39	848.0	444.0
40	681.0	273.0
41	681.0	293.0
42	362.0	130.0
43	102.0	147.0
44	825.0	517.0
45	487.0	296.0
46	366.0	467.0
47	460.0	44.0
48	617.0	228.0
49	354.0	486.0
50	429.0	121.0
51	827.0	424.0
52	355.0	619.0
53	618.0	230.0
54	474.0	279.0
55	406.0	452.0
56	280.0	358.0
57	249.0	372.0
58	610.0	214.0
59	426.0	326.0
60	587.0	134.0
61	509.0	70.0
62	619.0	230.0
63	565.0	260.0
64	452.0	416.0
65	609.0	129.0
66	689.0	317.0
67	453.0	595.0
68	592.0	263.0
69	0.0	274.0
70	427.0	207.0
71	761.0	444.0
72	598.0	104.0
73	282.0	22.0
74	442.0	122.0
75	530.0	225.0
76	588.0	106.0
77	701.0	292.0
78	464.0	322.0
79	204.0	677.0
80	561.0	228.0
81	415.0	84.0
82	417.0	60.0
83	315.0	603.0
84	437.0	343.0
85	572.0	246.0
86	396.0	196.0
87	596.0	160.0
88	603.0	102.0
89	573.0	151.0
90	95.0	267.0
91	486.0	291.0
92	292.0	637.0
93	617.0	489.0
94	476.0	459.0
95	310.0	503.0
96	150.0	303.0
97	554.0	253.0
98	794.0	196.0
99	447.0	791.0
100	557.0	104.0
101	606.0	259.0
102	489.0	270.0
103	311.0	361.0
104	444.0	589.0
105	360.0	71.0
106	630.0	153.0
107	585.0	902.0
108	185.0	335.0
109	488.0	277.0
110	381.0	68.0
111	565.0	291.0
112	331.0	45.0
113	602.0	501.0
114	480.0	764.0
115	710.0	285.0
116	432.0	485.0
117	369.0	63.0
118	428.0	362.0
119	701.0	268.0
120	516.0	440.0
121	583.0	149.0
122	466.0	354.0
123	477.0	327.0
124	316.0	494.0
125	448.0	490.0
126	448.0	331.0
127	541.0	235.0
128	855.0	432.0
129	306.0	533.0
130	712.0	335.0
131	614.0	208.0
132	378.0	59.0
133	512.0	343.0
134	386.0	244.0
135	50.0	201.0
136	189.0	238.0
137	329.0	464.0
138	260.0	43.0
139	626.0	155.0
140	597.0	119.0
141	303.0	593.0
142	604.0	106.0
143	741.0	249.0
144	514.0	310.0
145	622.0	201.0
146	61.0	125.0
147	531.0	231.0
148	157.0	307.0
149	609.0	221.0
150	329.0	364.0
151	453.0	456.0
152	449.0	560.0
153	510.0	324.0
154	193.0	249.0
155	227.0	651.0
156	457.0	424.0
157	610.0	178.0
158	445.0	40.0
159	168.0	313.0
160	340.0	256.0
161	429.0	48.0
162	979.0	619.0
163	351.0	480.0
164	571.0	259.0
165	512.0	246.0
166	541.0	251.0
167	549.0	242.0
168	599.0	508.0
169	438.0	456.0
170	582.0	528.0
171	785.0	488.0
172	458.0	446.0
173	549.0	489.0
174	166.0	252.0
175	608.0	141.0
176	360.0	393.0
177	764.0	422.0
178	388.0	865.0
179	505.0	397.0
180	441.0	519.0
181	262.0	312.0
182	248.0	354.0
183	627.0	199.0
184	275.0	598.0
185	456.0	571.0
186	370.0	468.0
187	479.0	273.0
188	339.0	357.0
189	455.0	562.0
190	419.0	319.0
191	717.0	374.0
192	411.0	346.0
193	79.0	103.0
194	310.0	56.0
195	496.0	377.0
196	368.0	221.0
197	215.0	670.0
198	449.0	415.0
199	282.0	350.0
200	854.0	415.0
201	555.0	228.0
202	605.0	118.0
203	435.0	218.0
204	563.0	119.0
205	171.0	316.0
206	122.0	303.0
207	581.0	102.0
208	500.0	274.0
209	822.0	439.0
210	492.0	275.0
211	175.0	354.0
212	489.0	269.0
213	499.0	313.0
214	571.0	336.0
215	601.0	252.0
216	795.0	156.0
217	525.0	265.0
218	327.0	59.0
219	756.0	482.0
220	710.0	276.0
221	515.0	392.0
222	683.0	284.0
223	262.0	662.0
224	892.0	483.0
225	583.0	255.0
226	529.0	192.0
227	640.0	188.0
228	603.0	204.0
229	610.0	176.0
230	696.0	279.0
231	494.0	279.0
232	305.0	45.0
233	582.0	105.0
234	452.0	551.0
235	610.0	132.0
236	760.0	466.0
237	603.0	122.0
238	624.0	212.0
239	593.0	235.0
240	329.0	643.0
241	603.0	126.0
242	448.0	53.0
243	615.0	180.0
244	476.0	94.0
245	422.0	44.0
246	591.0	153.0
247	285.0	652.0
248	291.0	16.0
249	310.0	631.0
250	279.0	410.0
251	476.0	617.0
252	697.0	272.0
253	689.0	304.0
254	394.0	453.0
255	515.0	785.0
256	455.0	553.0
257	338.0	511.0
258	490.0	268.0
259	598.0	104.0
260	620.0	148.0
261	701.0	286.0
262	632.0	171.0
263	530.0	235.0
264	423.0	51.0
265	407.0	383.0
266	524.0	68.0
267	123.0	456.0
268	412.0	285.0
269	621.0	521.0
270	684.0	287.0
271	594.0	144.0
272	676.0	278.0
273	320.0	519.0
274	565.0	100.0
275	787.0	213.0
276	437.0	69.0
277	620.0	213.0
278	464.0	388.0
279	390.0	61.0
280	475.0	463.0
281	387.0	177.0
282	383.0	429.0
283	210.0	351.0
284	574.0	244.0
285	620.0	226.0
286	419.0	205.0
287	490.0	278.0
288	410.0	154.0
289	470.0	463.0
290	426.0	401.0
291	588.0	135.0
292	358.0	305.0
293	481.0	92.0
294	838.0	416.0
295	311.0	503.0
296	323.0	54.0
297	187.0	288.0
298	547.0	224.0
299	300.0	653.0
300	447.0	52.0
301	426.0	220.0
302	392.0	422.0
303	769.0	297.0
304	608.0	498.0
305	592.0	100.0
306	697.0	277.0
307	619.0	163.0
308	481.0	299.0
309	796.0	316.0
310	614.0	207.0
311	754.0	194.0
312	517.0	233.0
313	715.0	272.0
314	404.0	486.0
315	587.0	97.0
316	610.0	257.0
317	623.0	216.0
318	145.0	275.0
319	623.0	166.0
320	793.0	453.0
321	1000.0	634.0
322	197.0	573.0
323	521.0	344.0
324	492.0	302.0
325	733.0	335.0
326	149.0	307.0
327	616.0	515.0
328	624.0	233.0
329	524.0	238.0
330	257.0	346.0
331	404.0	653.0
332	630.0	151.0
333	540.0	217.0
334	520.0	379.0
335	506.0	396.0
336	508.0	440.0
337	383.0	59.0
338	310.0	46.0
339	441.0	339.0
340	708.0	324.0
341	327.0	318.0
342	604.0	144.0
343	419.0	333.0
344	749.0	469.0
345	602.0	143.0
346	41.0	195.0
347	331.0	45.0
348	556.0	233.0
349	485.0	530.0
350	134.0	300.0
351	625.0	201.0
352	310.0	292.0
353	802.0	479.0
354	367.0	63.0
355	373.0	654.0
356	590.0	104.0
357	298.0	625.0
358	301.0	614.0
359	686.0	287.0
360	479.0	740.0
361	391.0	226.0
362	522.0	312.0
363	443.0	385.0
364	528.0	231.0
365	639.0	188.0
366	677.0	274.0
367	623.0	222.0
368	606.0	139.0
369	518.0	242.0
370	466.0	403.0
371	621.0	541.0
372	152.0	277.0
373	573.0	264.0
374	613.0	149.0
375	405.0	541.0
376	369.0	450.0
377	619.0	165.0
378	595.0	119.0
379	321.0	46.0
380	737.0	325.0
381	600.0	274.0
382	355.0	454.0
383	15.0	103.0
384	447.0	523.0
385	490.0	285.0
386	462.0	41.0
387	498.0	446.0
388	393.0	506.0
389	585.0	492.0
390	329.0	736.0
391	612.0	224.0
392	757.0	400.0
393	435.0	134.0
394	720.0	331.0
395	729.0	293.0
396	611.0	133.0
397	627.0	150.0
398	605.0	119.0
399	402.0	342.0
400	619.0	163.0
401	589.0	168.0
402	564.0	258.0
403	207.0	697.0
404	293.0	319.0
405	487.0	506.0
406	493.0	334.0
407	572.0	938.0
408	377.0	586.0
409	479.0	961.0
410	696.0	274.0
411	607.0	135.0
412	614.0	209.0
413	502.0	395.0
414	114.0	454.0
415	517.0	421.0
416	438.0	57.0
417	551.0	244.0
418	456.0	326.0
419	616.0	142.0
420	183.0	244.0
421	179.0	316.0
422	509.0	310.0
423	822.0	470.0
424	330.0	672.0
425	709.0	332.0
426	422.0	554.0
427	775.0	207.0
428	344.0	420.0
429	534.0	392.0
430	590.0	232.0
431	567.0	106.0
432	541.0	210.0
433	697.0	286.0
434	476.0	1000.0
435	697.0	278.0
436	376.0	266.0
437	94.0	267.0
438	602.0	289.0
439	330.0	302.0
440	710.0	283.0
441	246.0	335.0
442	163.0	302.0
443	589.0	148.0
444	162.0	297.0
445	709.0	296.0
446	594.0	102.0
447	423.0	498.0
448	547.0	212.0
449	590.0	158.0
450	151.0	296.0
451	492.0	434.0
452	706.0	265.0
453	433.0	428.0
454	565.0	235.0
455	610.0	187.0
456	702.0	264.0
457	584.0	219.0
458	731.0	434.0
459	540.0	210.0
460	592.0	154.0
461	723.0	244.0
462	378.0	205.0
463	405.0	210.0
464	896.0	541.0
465	818.0	454.0
466	472.0	588.0
467	693.0	283.0
468	517.0	278.0
469	544.0	246.0
470	505.0	255.0
471	732.0	320.0
472	597.0	103.0
473	559.0	96.0
474	496.0	350.0
475	95.0	262.0
476	358.0	520.0
477	583.0	154.0
478	708.0	273.0
479	428.0	393.0
480	602.0	119.0
481	342.0	113.0
482	555.0	101.0
483	622.0	213.0
484	613.0	257.0
485	612.0	494.0
486	830.0	482.0
487	471.0	532.0
488	341.0	312.0
489	553.0	231.0
490	223.0	337.0
491	621.0	516.0
492	590.0	152.0
493	161.0	316.0
494	624.0	168.0
495	416.0	49.0
496	365.0	535.0
497	525.0	829.0
498	741.0	445.0
499	563.0	144.0
500	372.0	138.0
501	709.0	334.0
502	682.0	287.0
503	734.0	285.0
504	506.0	374.0
505	437.0	131.0
506	172.0	242.0
507	320.0	698.0
508	419.0	399.0
509	385.0	623.0
510	518.0	870.0
511	310.0	505.0
512	834.0	502.0
513	759.0	399.0
514	162.0	720.0
515	277.0	328.0
516	453.0	421.0
517	703.0	299.0
518	603.0	204.0
519	615.0	163.0
520	497.0	380.0
521	479.0	40.0
522	516.0	170.0
523	549.0	210.0
524	520.0	389.0
525	456.0	41.0
526	340.0	575.0
527	446.0	54.0
528	350.0	359.0
529	622.0	148.0
530	579.0	96.0
531	70.0	126.0
532	552.0	143.0
533	617.0	209.0
534	624.0	206.0
535	603.0	209.0
536	477.0	601.0
537	709.0	275.0
538	539.0	257.0
539	633.0	181.0
540	791.0	533.0
541	575.0	248.0
542	155.0	673.0
543	808.0	458.0
544	368.0	130.0
545	35.0	224.0
546	431.0	187.0
547	386.0	572.0
548	603.0	106.0
549	390.0	605.0
550	613.0	206.0
551	725.0	321.0
552	477.0	427.0
553	598.0	97.0
554	169.0	749.0
555	527.0	242.0
556	511.0	318.0
557	180.0	239.0
558	554.0	234.0
559	603.0	102.0
560	555.0	104.0
561	394.0	314.0
562	739.0	465.0
563	198.0	355.0
564	370.0	233.0
565	593.0	514.0
566	187.0	68.0
567	801.0	453.0
568	554.0	98.0
569	618.0	233.0
570	676.0	283.0
571	594.0	515.0
572	562.0	98.0
573	436.0	372.0
574	755.0	192.0
575	594.0	160.0
576	166.0	347.0
577	511.0	402.0
578	776.0	214.0
579	427.0	56.0
580	752.0	266.0
581	440.0	179.0
582	808.0	526.0
583	611.0	122.0
584	488.0	110.0
585	535.0	248.0
586	380.0	388.0
587	318.0	320.0
588	331.0	538.0
589	500.0	273.0
590	535.0	217.0
591	566.0	104.0
592	283.0	607.0
593	519.0	191.0
594	538.0	283.0
595	471.0	433.0
596	710.0	289.0
597	430.0	324.0
598	372.0	72.0
599	626.0	152.0
600	582.0	103.0
601	556.0	298.0
602	573.0	96.0
603	607.0	179.0
604	535.0	261.0
605	541.0	398.0
606	308.0	672.0
607	620.0	208.0
608	806.0	472.0
609	414.0	58.0
610	439.0	448.0
611	572.0	253.0
612	279.0	345.0
613	596.0	157.0
614	909.0	669.0
615	561.0	228.0
616	605.0	146.0
617	606.0	180.0
618	13.0	88.0
619	439.0	128.0
620	794.0	197.0
621	517.0	409.0
622	165.0	718.0
623	542.0	251.0
624	527.0	285.0
625	312.0	35.0
626	553.0	225.0
627	322.0	69.0
628	248.0	391.0
629	485.0	323.0
630	609.0	247.0
631	464.0	50.0
632	601.0	149.0
633	547.0	116.0
634	586.0	109.0
635	411.0	266.0
636	412.0	345.0
637	623.0	217.0
638	801.0	316.0
639	440.0	56.0
640	501.0	273.0
641	404.0	200.0
642	604.0	200.0
643	623.0	167.0
644	523.0	188.0
645	744.0	400.0
646	333.0	139.0
647	466.0	400.0
648	580.0	518.0
649	421.0	290.0
650	187.0	330.0
651	603.0	209.0
652	72.0	133.0
653	416.0	440.0
654	490.0	312.0
655	415.0	339.0
656	266.0	640.0
657	723.0	249.0
658	330.0	530.0
659	575.0	245.0
660	391.0	580.0
661	623.0	147.0
662	388.0	475.0
663	675.0	267.0
664	527.0	249.0
665	256.0	50.0
666	344.0	546.0
667	266.0	318.0
668	688.0	277.0
669	840.0	498.0
670	400.0	228.0
671	254.0	625.0
672	214.0	250.0
673	543.0	96.0
674	55.0	255.0
675	695.0	284.0
676	530.0	91.0
677	618.0	142.0
678	540.0	209.0
679	612.0	181.0
680	327.0	493.0
681	141.0	258.0
682	443.0	382.0
683	632.0	152.0
684	801.0	510.0
685	608.0	210.0
686	384.0	499.0
687	980.0	720.0
688	551.0	118.0
689	340.0	635.0
690	163.0	729.0
691	305.0	582.0
692	542.0	215.0
693	467.0	102.0
694	421.0	452.0
695	454.0	46.0
696	431.0	192.0
697	541.0	226.0
698	591.0	146.0
699	597.0	197.0
700	527.0	861.0
701	286.0	393.0
702	458.0	43.0
703	368.0	552.0
704	590.0	139.0
705	357.0	255.0
706	297.0	359.0
707	380.0	538.0
708	202.0	576.0
709	388.0	236.0
710	429.0	60.0
711	364.0	136.0
712	609.0	188.0
713	253.0	19.0
714	623.0	225.0
715	795.0	327.0
716	755.0	204.0
717	565.0	248.0
718	395.0	409.0
719	244.0	0.0
720	538.0	236.0
721	570.0	846.0
722	623.0	215.0
723	392.0	415.0
724	591.0	498.0
725	530.0	241.0
726	487.0	277.0
727	608.0	145.0
728	396.0	456.0
729	586.0	99.0
730	402.0	246.0
731	593.0	101.0
732	497.0	318.0
733	258.0	357.0
734	459.0	486.0
735	597.0	120.0
736	283.0	37.0
737	497.0	293.0
738	392.0	342.0
739	73.0	249.0
740	708.0	285.0
741	553.0	258.0
742	704.0	263.0
743	558.0	230.0
744	107.0	416.0
745	449.0	457.0
746	33.0	231.0
747	320.0	323.0
748	566.0	129.0
749	619.0	215.0
750	599.0	219.0
751	381.0	445.0
752	253.0	327.0
753	435.0	44.0
754	541.0	388.0
755	604.0	299.0
756	876.0	451.0
757	278.0	371.0
758	342.0	137.0
759	436.0	48.0
760	458.0	172.0
761	350.0	701.0
762	352.0	449.0
763	438.0	451.0
764	629.0	457.0
765	603.0	125.0
766	427.0	64.0
767	710.0	317.0
768	351.0	326.0
769	820.0	434.0
770	589.0	502.0
771	602.0	242.0
772	270.0	22.0
773	756.0	465.0
774	595.0	161.0
775	498.0	295.0
776	713.0	263.0
777	542.0	104.0
778	547.0	308.0
779	369.0	265.0
780	525.0	261.0
781	445.0	55.0
782	458.0	42.0
783	291.0	42.0
784	713.0	295.0
785	461.0	415.0
786	491.0	311.0
787	554.0	97.0
788	499.0	312.0
789	354.0	427.0
790	554.0	227.0
791	528.0	300.0
792	484.0	554.0
793	332.0	505.0
794	605.0	121.0
795	466.0	723.0
796	419.0	454.0
797	885.0	662.0
798	293.0	103.0
799	445.0	338.0
800	618.0	174.0
801	693.0	280.0
802	408.0	277.0
803	280.0	319.0
804	480.0	454.0
805	401.0	608.0
806	698.0	224.0
807	445.0	43.0
808	593.0	156.0
809	619.0	245.0
810	603.0	202.0
811	339.0	469.0
812	451.0	316.0
813	178.0	546.0
814	717.0	371.0
815	344.0	604.0
816	410.0	467.0
817	196.0	263.0
818	693.0	318.0
819	852.0	445.0
820	278.0	32.0
821	562.0	104.0
822	574.0	245.0
823	622.0	149.0
824	608.0	140.0
825	626.0	144.0
826	573.0	150.0
827	569.0	111.0
828	229.0	328.0
829	608.0	139.0
830	615.0	180.0
831	388.0	464.0
832	103.0	259.0
833	544.0	368.0
834	604.0	201.0
835	575.0	239.0
836	419.0	171.0
837	464.0	389.0
838	528.0	264.0
839	500.0	277.0
840	584.0	518.0
841	555.0	247.0
842	600.0	125.0
843	8.0	120.0
844	344.0	339.0
845	308.0	325.0
846	336.0	526.0
847	555.0	258.0
848	701.0	284.0
849	590.0	490.0
850	527.0	78.0
851	245.0	344.0
852	510.0	352.0
853	348.0	437.0
854	608.0	137.0
855	573.0	150.0
856	586.0	498.0
857	701.0	266.0
858	523.0	283.0
859	579.0	508.0
860	687.0	277.0
861	696.0	278.0
862	249.0	347.0
863	607.0	256.0
864	741.0	251.0
865	18.0	142.0
866	321.0	43.0
867	560.0	254.0
868	431.0	113.0
869	364.0	135.0
870	532.0	88.0
871	761.0	293.0
872	304.0	594.0
873	473.0	768.0
874	9.0	210.0
875	551.0	234.0
876	393.0	496.0
877	472.0	549.0
878	284.0	607.0
879	386.0	178.0
880	331.0	356.0
881	545.0	399.0
882	356.0	605.0
883	458.0	691.0
884	714.0	349.0
885	702.0	292.0
886	504.0	425.0
887	431.0	46.0
888	417.0	387.0
889	239.0	621.0
890	603.0	102.0
891	117.0	167.0
892	321.0	497.0
893	392.0	528.0
894	572.0	261.0
895	544.0	240.0
896	413.0	179.0
897	31.0	232.0
898	315.0	313.0
899	696.0	278.0
900	470.0	101.0
901	330.0	318.0
902	364.0	462.0
903	604.0	145.0
904	27.0	334.0
905	707.0	349.0
906	623.0	244.0
907	430.0	184.0
908	161.0	235.0
909	338.0	93.0
910	481.0	292.0
911	612.0	501.0
912	567.0	233.0
913	428.0	62.0
914	403.0	387.0
915	622.0	206.0
916	405.0	652.0
917	291.0	301.0
918	574.0	235.0
919	459.0	442.0
920	418.0	585.0
921	613.0	255.0
922	417.0	61.0
923	621.0	205.0
924	287.0	35.0
925	632.0	150.0
926	426.0	382.0
927	470.0	36.0
928	394.0	181.0
929	286.0	761.0
930	621.0	203.0
931	385.0	374.0
932	356.0	599.0
933	713.0	365.0
934	368.0	183.0
935	503.0	783.0
936	213.0	268.0
937	419.0	411.0
938	312.0	348.0
939	392.0	539.0
940	311.0	47.0
941	107.0	273.0
942	496.0	282.0
943	283.0	22.0
944	558.0	232.0
945	442.0	320.0
946	763.0	468.0
947	307.0	313.0
948	607.0	266.0
949	604.0	196.0
950	441.0	209.0
951	473.0	88.0
952	607.0	125.0
953	280.0	36.0
954	686.0	329.0
955	413.0	561.0
956	411.0	90.0
957	277.0	28.0
958	621.0	208.0
959	425.0	236.0
960	524.0	414.0
961	562.0	273.0
962	613.0	177.0
963	616.0	481.0
964	595.0	480.0
965	770.0	189.0
966	485.0	276.0
967	549.0	315.0
968	108.0	410.0
969	823.0	523.0
970	372.0	682.0
971	594.0	120.0
972	490.0	262.0
973	420.0	48.0
974	301.0	352.0
975	482.0	305.0
976	421.0	195.0
977	604.0	101.0
978	566.0	99.0
979	387.0	701.0
980	566.0	239.0
981	616.0	149.0
982	373.0	496.0
983	626.0	149.0
984	330.0	584.0
985	397.0	389.0
986	734.0	441.0
987	609.0	172.0
988	390.0	391.0
989	750.0	447.0
990	615.0	258.0
991	150.0	344.0
992	422.0	410.0
993	775.0	459.0
994	263.0	604.0
995	770.0	457.0
996	449.0	41.0
997	489.0	401.0
998	694.0	296.0
999	583.0	154.0
1000	425.0	348.0
1001	417.0	63.0
DEMAND_SECTION
1	0
2	1
3	1
4	5
5	5
6	3
7	3
8	7
9	8
10	3
11	2
12	5
13	2
14	10
15	4
16	7
17	3
18	6
19	1
20	9
21	8
22	9
23	6
24	3
25	4
26	4
27	7
28	10
29	4
30	7
31	9
32	5
33	5
34	9
35	5
36	4
37	1
38	10
39	2
40	3
41	2
42	4
43	8
44	7
45	1
46	3
47	1
48	7
49	8
50	2
51	8
52	7
53	6
54	7
55	3
56	4
57	1
58	10
59	8
60	9
61	8
62	10
63	1
64	8
65	7
66	10
67	8
68	6
69	9
70	6
71	1
72	9
73	8
74	7
75	3
76	1
77	4
78	5
79	8
80	5
81	9
82	9
83	6
84	8
85	7
86	8
87	1
88	6
89	2
90	10
91	1
92	3
93	8
94	7
95	2
96	3
97	1
98	7
99	10
100	9
101	4
102	9
103	4
104	4
105	9
106	8
107	10
108	10
109	9
110	8
111	9
112	4
113	9
114	7
115	3
116	1
117	7
118	6
119	5
120	7
121	3
122	9
123	10
124	8
125	10
126	8
127	4
128	1
129	9
130	8
131	1
132	7
133	10
134	5
135	1
136	10
137	2
138	6
139	6
140	5
141	3
142	10
143	3
144	1
145	8
146	2
147	1
148	7
149	7
150	3
151	5
152	5
153	9
154	3
155	6
156	8
157	3
158	6
159	10
160	9
161	2
162	10
163	4
164	7
165	1
166	7
167	1
168	3
169	7
170	7
171	3
172	3
173	9
174	3
175	2
176	2
177	3
178	10
179	5
180	8
181	2
182	1
183	7
184	9
185	3
186	2
187	10
188	2
189	1
190	8
191	2
192	9
193	10
194	4
195	7
196	8
197	10
198	10
199	6
200	3
201	1
202	8
203	6
204	6
205	2
206	8
207	6
208	7
209	5
210	7
211	3
212	3
213	5
214	9
215	3
216	5
217	2
218	4
219	9
220	5
221	2
222	4
223	8
224	3
225	6
226	10
227	8
228	2
229	10
230	5
231	7
232	7
233	6
234	3
235	9
236	3
237	2
238	3
239	1
240	9
241	2
242	3
243	1
244	7
245	6
246	10
247	10
248	3
249	7
250	10
251	3
252	8
253	9
254	6
255	6
256	7
257	6
258	9
259	8
260	7
261	6
262	5
263	10
264	8
265	9
266	6
267	7
268	6
269	1
270	4
271	7
272	4
273	1
274	7
275	4
276	6
277	10
278	2
279	6
280	6
281	7
282	6
283	2
284	4
285	1
286	6
287	6
288	9
289	1
290	6
291	6
292	9
293	9
294	5
295	1
296	4
297	9
298	7
299	5
300	1
301	10
302	9
303	2
304	4
305	3
306	7
307	2
308	1
309	4
310	6
311	8
312	7
313	2
314	2
315	9
316	7
317	4
318	9
319	2
320	7
321	1
322	8
323	6
324	1
325	8
326	4
327	6
328	3
329	2
330	8
331	10
332	5
333	4
334	2
335	1
336	7
337	1
338	4
339	2
340	8
341	9
342	1
343	10
344	4
345	2
346	10
347	10
348	4
349	10
350	1
351	7
352	2
353	5
354	2
355	10
356	3
357	6
358	7
359	8
360	10
361	9
362	1
363	5
364	5
365	8
366	5
367	5
368	3
369	3
370	5
371	2
372	1
373	5
374	4
375	1
376	4
377	6
378	6
379	2
380	5
381	4
382	9
383	8
384	4
385	6
386	10
387	8
388	7
389	3
390	7
391	6
392	8
393	4
394	7
395	1
396	2
397	2
398	3
399	8
400	1
401	10
402	1
403	4
404	6
405	1
406	8
407	3
408	10
409	10
410	3
411	5
412	4
413	8
414	6
415	7
416	6
417	1
418	9
419	10
420	2
421	1
422	8
423	9
424	2
425	6
426	2
427	4
428	7
429	4
430	4
431	7
432	9
433	5
434	8
435	2
436	2
437	10
438	1
439	3
440	9
441	10
442	4
443	8
444	2
445	5
446	10
447	3
448	3
449	8
450	1
451	8
452	6
453	3
454	3
455	9
456	6
457	6
458	4
459	2
460	5
461	10
462	6
463	8
464	5
465	5
466	8
467	3
468	10
469	8
470	3
471	7
472	3
473	4
474	4
475	1
476	3
477	1
478	1
479	4
480	6
481	7
482	8
483	6
484	3
485	1
486	8
487	7
488	4
489	3
490	6
491	9
492	2
493	7
494	9
495	4
496	6
497	10
498	9
499	10
500	4
501	1
502	10
503	10
504	9
505	8
506	2
507	2
508	1
509	7
510	5
511	1
512	5
513	7
514	4
515	5
516	6
517	5
518	3
519	5
520	5
521	6
522	3
523	9
524	10
525	5
526	5
527	7
528	5
529	4
530	7
531	8
532	7
533	7
534	1
535	6
536	1
537	5
538	9
539	9
540	3
541	9
542	3
543	4
544	5
545	1
546	8
547	2
548	9
549	8
550	10
551	7
552	10
553	8
554	4
555	9
556	8
557	4
558	8
559	9
560	7
561	3
562	8
563	3
564	3
565	8
566	2
567	3
568	1
569	10
570	10
571	6
572	4
573	4
574	6
575	2
576	9
577	1
578	5
579	5
580	8
581	8
582	4
583	5
584	4
585	7
586	5
587	3
588	4
589	2
590	3
591	7
592	1
593	1
594	1
595	5
596	8
597	9
598	4
599	5
600	4
601	9
602	8
603	2
604	7
605	10
606	9
607	7
608	4
609	3
610	7
611	8
612	5
613	8
614	6
615	2
616	2
617	2
618	2
619	1
620	2
621	3
622	7
623	2
624	5
625	6
626	8
627	1
628	7
629	10
630	4
631	5
632	4
633	7
634	2
635	6
636	4
637	6
638	2
639	10
640	4
641	9
642	3
643	8
644	7
645	8
646	3
647	3
648	2
649	2
650	8
651	1
652	3
653	5
654	9
655	5
656	7
657	2
658	1
659	7
660	1
661	1
662	6
663	9
664	6
665	4
666	4
667	4
668	7
669	2
670	10
671	6
672	10
673	6
674	2
675	6
676	8
677	5
678	10
679	6
680	10
681	8
682	2
683	9
684	6
685	8
686	6
687	9
688	2
689	7
690	10
691	10
692	5
693	9
694	10
695	9
696	2
697	3
698	3
699	1
700	7
701	10
702	5
703	1
704	5
705	8
706	7
707	8
708	4
709	2
710	2
711	9
712	2
713	2
714	10
715	7
716	2
717	3
718	9
719	9
720	5
721	4
722	10
723	5
724	1
725	8
726	4
727	7
728	8
729	5
730	10
731	1
732	7
733	1
734	9
735	8
736	1
737	5
738	5
739	3
740	2
741	1
742	10
743	9
744	8
745	4
746	10
747	6
748	3
749	2
750	2
751	6
752	4
753	2
754	2
755	2
756	8
757	1
758	4
759	5
760	1
761	4
762	1
763	10
764	9
765	7
766	8
767	3
768	7
769	10
770	4
771	6
772	1
773	5
774	1
775	4
776	3
777	7
778	6
779	4
780	10
781	5
782	3
783	8
784	9
785	3
786	6
787	9
788	9
789	5
790	9
791	6
792	1
793	2
794	2
795	5
796	2
797	7
798	7
799	5
800	9
801	8
802	1
803	10
804	1
805	4
806	8
807	2
808	7
809	1
810	2
811	1
812	7
813	5
814	4
815	1
816	7
817	8
818	9
819	3
820	6
821	2
822	5
823	9
824	6
825	7
826	5
827	8
828	7
829	6
830	2
831	6
832	10
833	3
834	10
835	5
836	5
837	2
838	5
839	1
840	1
841	10
842	3
843	10
844	4
845	1
846	4
847	4
848	10
849	2
850	9
851	5
852	10
853	9
854	2
855	3
856	5
857	8
858	1
859	9
860	8
861	4
862	7
863	1
864	1
865	9
866	3
867	6
868	5
869	3
870	6
871	8
872	9
873	1
874	1
875	9
876	10
877	10
878	8
879	7
880	1
881	8
882	4
883	5
884	3
885	2
886	5
887	1
888	9
889	3
890	2
891	3
892	9
893	5
894	1
895	3
896	1
897	3
898	9
899	8
900	10
901	10
902	2
903	10
904	5
905	2
906	2
907	8
908	4
909	6
910	2
911	3
912	6
913	10
914	3
915	9
916	4
917	7
918	4
919	2
920	2
921	1
922	7
923	2
924	6
925	8
926	2
927	1
928	6
929	7
930	4
931	6
932	7
933	10
934	3
935	10
936	4
937	8
938	5
939	4
940	7
941	9
942	10
943	4
944	7
945	4
946	1
947	6
948	10
949	6
950	2
951	4
952	6
953	10
954	4
955	2
956	2
957	3
958	4
959	9
960	8
961	1
962	1
963	8
964	10
965	8
966	2
967	1
968	2
969	6
970	6
971	4
972	8
973	10
974	9
975	6
976	1
977	8
978	7
979	1
980	9
981	2
982	6
983	6
984	5
985	9
986	8
987	2
988	6
989	7
990	5
991	10
992	7
993	3
994	10
995	8
996	3
997	5
998	1
999	2
1000	5
1001	6
DEPOT_SECTION
1
-1
EOF
